32      4       
10      10      10      10      
0       0       0       0       0       3       2       3       5       
1       1       1       0       1       3       4       6       9       
4       2       0       1       5       4       7       9       11      12      
8       0       6       4       4       3       7       11      12      
1       4       3       0       3       3       8       11      12      
7       5       3       2       0       2       10      12      
7       7       2       0       7       1       8       
10      4       0       4       6       1       10      
6       1       0       2       2       1       10      
4       2       4       3       0       3       13      15      16      
8       5       3       6       0       3       13      15      16      
10      3       4       3       0       2       14      15      
7       3       0       3       2       1       14      
6       0       5       8       5       1       17      
9       0       5       5       5       1       18      
2       3       6       5       0       1       17      
2       0       5       2       4       2       19      20      
1       7       3       0       7       2       19      20      
9       4       8       5       0       3       21      23      31      
9       3       0       3       3       3       22      23      31      
2       7       5       0       4       1       22      
5       6       5       5       0       2       24      28      
3       2       2       6       0       2       24      28      
7       4       4       0       3       3       25      27      30      
3       3       4       0       4       1       26      
6       0       7       3       3       1       29      
2       0       4       4       3       1       29      
10      10      4       4       0       1       30      
9       4       2       0       3       1       32      
9       4       3       6       0       1       32      
7       2       2       0       6       1       32      
0       0       0       0       0       0       
